50
    1   946   204
    2   819   448
    3   420   654
    4   800   863
    5   406   928
    6   941   294
    7    70   801
    8   560   608
    9   795   769
   10   583    70
   11   595     8
   12   695   183
   13   463   696
   14   742   616
   15   171   561
   16   352   801
   17   858   481
   18   182   396
   19   887   997
   20   606   458
   21   470   737
   22   955   844
   23   552   656
   24   764   331
   25   493   465
   26   363   132
   27   588    70
   28   220   636
   29   982   810
   30   261   171
   31   793   398
   32   796   800
   33   872   240
   34   347   617
   35   768   744
   36   785   109
   37   741   448
   38   187   553
   39   339   160
   40   408    59
   41   320   451
   42   442   902
   43   518   730
   44   127   634
   45    23   731
   46   375    47
   47   513   358
   48     1   526
   49   593   659
   50   686   668
8507
